c FILE: graph-us-01.col
c We build our own graph for testing
p edge 11 17
e 1 2
e 1 3
e 1 4
e 1 6
e 2 4
e 2 6
e 2 7
e 2 8
e 2 10
e 3 4
e 3 11
e 4 8
e 4 11
e 5 6
e 5 7
e 5 9
e 5 10
e 5 11
e 6 7
e 7 10
e 8 9
e 8 10
e 8 11
e 9 10
e 9 11